
Gurobi 8.1.1 (win64, Python) logging started 04/14/20 11:58:26

Academic license - for non-commercial use only
Read LP format model from file C:\Users\JONASF~1\AppData\Local\Temp\tmpuwflhiz3.pyomo.lp
Reading time = 1.98 seconds
x351362: 333794 rows, 324989 columns, 939773 nonzeros
Changed value of parameter mipgap to 0.01
   Prev: 0.0001  Min: 0.0  Max: 1e+100  Default: 0.0001
Optimize a model with 333794 rows, 324989 columns and 939773 nonzeros
Variable types: 281089 continuous, 43900 integer (43900 binary)
Coefficient statistics:
  Matrix range     [1e-01, 3e+02]
  Objective range  [1e-02, 8e+07]
  Bounds range     [1e+00, 2e+05]
  RHS range        [8e-03, 2e+04]
Presolve removed 168580 rows and 176865 columns
Presolve time: 3.14s
Presolved: 165214 rows, 148124 columns, 512960 nonzeros
Variable types: 104661 continuous, 43463 integer (43463 binary)

Root simplex log...

Iteration    Objective       Primal Inf.    Dual Inf.      Time
       0   -1.1653474e+08   2.794451e+06   0.000000e+00      7s
   23635   -8.1063837e+07   1.557480e+05   0.000000e+00     10s
   51298   -7.4658500e+07   2.057817e+05   0.000000e+00     15s
   70138   -7.2729064e+07   2.622536e+04   0.000000e+00     20s
   85506   -7.2362985e+07   0.000000e+00   0.000000e+00     23s

Root relaxation: objective -7.236298e+07, 85506 iterations, 16.55 seconds
Total elapsed time = 26.05s

    Nodes    |    Current Node    |     Objective Bounds      |     Work
 Expl Unexpl |  Obj  Depth IntInf | Incumbent    BestBd   Gap | It/Node Time

     0     0 -7.236e+07    0 7624          - -7.236e+07      -     -   29s
H    0     0                    -6.42282e+07 -7.236e+07  12.7%     -   31s
H    0     0                    -6.83268e+07 -7.236e+07  5.91%     -   33s
     0     0 -7.196e+07    0 7883 -6.833e+07 -7.196e+07  5.32%     -   48s
H    0     0                    -6.90698e+07 -7.196e+07  4.18%     -   51s
     0     0 -7.168e+07    0 7514 -6.907e+07 -7.168e+07  3.79%     -   69s
     0     0 -7.163e+07    0 7812 -6.907e+07 -7.163e+07  3.70%     -   90s
     0     0 -7.161e+07    0 8198 -6.907e+07 -7.161e+07  3.67%     -  111s
     0     0 -7.160e+07    0 8131 -6.907e+07 -7.160e+07  3.67%     -  125s
     0     0 -7.160e+07    0 8135 -6.907e+07 -7.160e+07  3.67%     -  126s
     0     0 -7.160e+07    0 8120 -6.907e+07 -7.160e+07  3.67%     -  127s
     0     0 -7.151e+07    0 7496 -6.907e+07 -7.151e+07  3.54%     -  144s
H    0     0                    -7.06336e+07 -7.151e+07  1.25%     -  156s
     0     0 -7.146e+07    0 6966 -7.063e+07 -7.146e+07  1.17%     -  170s
     0     0 -7.145e+07    0 6802 -7.063e+07 -7.145e+07  1.15%     -  179s
     0     0 -7.144e+07    0 6697 -7.063e+07 -7.144e+07  1.15%     -  181s
     0     0 -7.144e+07    0 6695 -7.063e+07 -7.144e+07  1.15%     -  183s
     0     0 -7.134e+07    0 4860 -7.063e+07 -7.134e+07  1.00%     -  192s
H    0     0                    -7.10195e+07 -7.134e+07  0.45%     -  201s

Cutting planes:
  Learned: 2
  Gomory: 335
  Cover: 618
  Implied bound: 15
  MIR: 8237
  StrongCG: 4
  Flow cover: 7244
  Zero half: 15

Explored 1 nodes (155138 simplex iterations) in 201.48 seconds
Thread count was 8 (of 8 available processors)

Solution count 5: -7.10195e+07 -7.06336e+07 -6.90698e+07 ... -6.42282e+07

Optimal solution found (tolerance 1.00e-02)
Best objective -7.101947480149e+07, best bound -7.134197083466e+07, gap 0.4541%
